NAME : javier
COMMENT : (ciudades ur.)
TYPE : CVRP
DIMENSION : 14
EDGE_WEIGHT_TYPE : EXPLICIT
EDGE_WEIGHT_FORMAT: LOWER_COL 
DISPLAY_DATA_TYPE: NO_DISPLAY
CAPACITY : 140
EDGE_WEIGHT_SECTION
    663    302    794    220    567    522    334    391    615    207
    206    589    164    415    511    224    579    182    425    529
     18     45    640    340    182    309    244    262    423    281
    718    286    110    553    571    378     54    718    250    298
    340    154    172     98    477     93    749    220    316    422
    125    143    138    487     40    516    163    836    404    228
    672    690    496    118    595    605    608     71    928    510
    328    860    868    588    210    722    760     92    518    161
    838    420    236    770    778    498    120    633    670      2
    90 	
DEMAND_SECTION
1 0
2 24  
3 34   
4 11  
5 15
6 11 
7 1 
8 3 
9 29 
10 6
11 25
12 6 
13 25   
14 2  
DEPOT_SECTION
1
6
9
-1
EOF
